c This is an instance of the heur track of PACE 2020 Challenge, see https://pacechallenge.org/2020/ 
c TYPE: infrastructure 
c ORIGIN: http://networkrepository.com/ 
c DESCRIPTION: a flight network 
p tdp 332 2126
1 2
1 3
1 4
2 3
2 4
3 4
3 7
3 8
4 6
4 5
4 10
4 9
4 11
4 12
4 13
4 14
4 7
4 15
4 16
4 17
4 18
4 19
4 20
4 21
4 22
4 8
4 23
4 24
4 25
4 26
4 27
4 28
4 29
4 30
5 6
7 42
7 43
7 44
7 45
7 46
7 8
8 44
8 46
8 48
8 60
8 50
8 68
8 69
8 63
8 70
8 64
8 65
8 71
8 23
8 24
8 72
8 73
8 67
8 74
8 75
8 76
8 25
8 26
8 77
8 78
8 49
8 27
8 79
8 80
8 81
8 59
8 82
8 83
8 84
8 85
8 86
8 87
8 88
8 28
8 89
8 90
8 91
8 92
8 93
8 94
8 29
8 95
8 96
8 97
8 98
8 99
8 100
8 101
8 30
8 102
9 10
9 11
10 11
11 32
11 31
11 33
11 34
11 35
11 36
11 37
11 38
11 39
11 40
11 41
12 42
13 14
16 19
17 18
19 20
20 22
21 22
23 48
23 50
23 68
23 63
23 70
23 64
23 65
23 71
23 110
23 111
23 24
23 72
23 73
23 67
23 112
23 113
23 25
23 114
23 26
23 49
23 27
23 115
23 59
23 82
23 84
23 87
23 88
23 28
23 89
23 90
23 93
23 94
23 29
23 95
23 96
23 97
23 98
23 99
23 100
24 58
24 61
24 62
24 50
24 52
24 53
24 103
24 105
24 57
24 56
24 66
24 109
24 116
24 117
24 118
24 104
24 119
24 75
24 120
24 121
24 76
24 122
24 25
24 26
24 123
24 124
24 77
24 125
24 78
24 126
24 127
24 27
24 128
24 79
24 80
24 81
24 129
24 130
24 131
24 132
24 59
24 133
24 83
24 134
24 84
24 85
24 135
24 86
24 87
24 136
24 88
24 28
24 89
24 137
24 90
24 91
24 92
24 138
24 94
24 29
24 95
24 96
24 97
24 98
24 99
24 139
24 140
24 100
24 141
24 142
24 143
24 144
24 145
24 101
24 30
25 108
25 109
25 162
25 119
25 166
25 165
25 75
25 120
25 121
25 169
25 154
25 76
25 122
25 26
25 123
25 77
25 149
25 185
25 78
25 127
25 171
25 27
25 128
25 79
25 186
25 80
25 81
25 187
25 130
25 131
25 132
25 59
25 133
25 178
25 83
25 134
25 84
25 85
25 135
25 86
25 136
25 28
25 179
25 89
25 180
25 137
25 90
25 167
25 91
25 92
25 29
25 95
25 96
25 97
25 98
25 99
25 140
25 100
25 141
25 142
25 143
25 188
25 182
25 144
25 145
25 101
26 50
26 103
26 107
26 147
26 106
26 108
26 109
26 152
26 150
26 116
26 151
26 117
26 118
26 146
26 156
26 104
26 67
26 162
26 163
26 119
26 166
26 165
26 170
26 75
26 120
26 148
26 121
26 169
26 154
26 174
26 157
26 173
26 76
26 122
26 190
26 123
26 124
26 149
26 185
26 192
26 125
26 172
26 158
26 78
26 126
26 193
26 127
26 171
26 194
26 159
26 168
26 27
26 195
26 128
26 79
26 196
26 186
26 80
26 81
26 129
26 197
26 198
26 187
26 199
26 130
26 131
26 132
26 200
26 201
26 59
26 133
26 202
26 82
26 83
26 203
26 134
26 84
26 85
26 135
26 204
26 86
26 87
26 205
26 136
26 206
26 207
26 88
26 208
26 28
26 179
26 89
26 209
26 180
26 210
26 137
26 211
26 90
26 167
26 212
26 213
26 214
26 91
26 92
26 138
26 215
26 94
26 29
26 216
26 217
26 95
26 96
26 218
26 97
26 219
26 98
26 99
26 181
26 139
26 220
26 221
26 222
26 140
26 100
26 141
26 223
26 142
26 143
26 188
26 182
26 144
26 145
26 101
26 30
26 183
27 51
27 50
27 52
27 53
27 57
27 54
27 65
27 56
27 66
27 116
27 156
27 104
27 67
27 155
27 74
27 153
27 161
27 76
27 126
27 49
27 80
27 132
27 59
27 202
27 82
27 83
27 84
27 85
27 204
27 86
27 87
27 88
27 28
27 89
27 233
27 210
27 90
27 213
27 138
27 93
27 94
27 29
27 217
27 95
27 96
27 97
27 98
27 99
27 139
27 140
27 100
27 223
27 142
28 50
28 72
28 73
28 67
28 75
28 113
28 76
28 228
28 78
28 227
28 79
28 80
28 115
28 81
28 132
28 248
28 59
28 133
28 82
28 83
28 134
28 84
28 85
28 257
28 86
28 87
28 268
28 269
28 88
28 271
28 89
28 273
28 233
28 274
28 137
28 90
28 267
28 275
28 91
28 92
28 138
28 276
28 252
28 93
28 94
28 29
28 217
28 253
28 95
28 96
28 97
28 98
28 99
28 220
28 140
28 100
28 142
28 101
28 30
28 102
28 277
29 67
29 75
29 76
29 78
29 79
29 80
29 81
29 129
29 130
29 131
29 132
29 59
29 133
29 202
29 82
29 83
29 203
29 134
29 84
29 85
29 86
29 87
29 88
29 89
29 233
29 274
29 137
29 90
29 91
29 92
29 138
29 252
29 297
29 93
29 217
29 95
29 96
29 97
29 98
29 99
29 139
29 220
29 140
29 100
29 142
29 143
29 101
29 30
29 102
29 277
29 299
30 59
30 86
30 90
30 94
30 96
30 97
30 98
30 99
30 321
30 322
30 323
30 102
30 324
30 277
30 325
30 326
30 327
30 299
31 32
31 33
31 34
32 33
32 34
37 39
37 40
39 40
44 45
44 46
45 47
46 47
48 49
49 50
49 116
49 224
49 125
49 59
49 83
49 208
49 210
49 213
49 214
49 138
49 98
49 100
50 51
50 52
50 53
50 63
50 54
50 64
50 65
50 55
50 56
50 66
50 67
50 59
51 52
51 53
51 54
51 55
51 56
52 53
52 54
52 56
52 66
53 54
53 55
53 56
53 66
53 59
54 55
54 56
54 66
55 56
55 66
56 66
56 59
57 58
57 104
57 59
58 59
59 103
59 66
59 73
59 156
59 104
59 67
59 119
59 75
59 157
59 76
59 124
59 77
59 125
59 158
59 78
59 126
59 159
59 128
59 79
59 196
59 80
59 81
59 129
59 130
59 132
59 133
59 202
59 82
59 83
59 203
59 134
59 249
59 84
59 85
59 204
59 86
59 87
59 250
59 88
59 208
59 89
59 251
59 233
59 210
59 137
59 90
59 213
59 91
59 92
59 138
59 252
59 93
59 94
59 217
59 253
59 95
59 96
59 97
59 98
59 99
59 139
59 220
59 222
59 140
59 100
59 141
59 223
59 142
59 143
59 101
63 64
63 65
63 71
63 67
64 70
64 65
64 71
64 67
65 70
65 71
65 110
65 67
67 155
67 74
67 160
67 161
68 69
69 70
69 71
70 71
71 110
72 73
72 114
73 112
73 113
73 114
73 115
75 150
75 151
75 119
75 121
75 76
75 78
75 128
75 79
75 81
75 130
75 132
75 83
75 84
75 135
75 86
75 137
75 90
75 91
75 92
75 96
75 97
75 98
75 99
75 142
75 143
75 145
75 101
76 147
76 146
76 166
76 165
76 120
76 123
76 78
76 128
76 79
76 80
76 81
76 130
76 131
76 132
76 133
76 178
76 134
76 84
76 85
76 135
76 86
76 179
76 89
76 180
76 137
76 90
76 167
76 91
76 92
76 96
76 97
76 98
76 181
76 100
76 142
76 143
76 182
76 144
76 145
76 101
76 183
77 177
77 78
77 128
77 79
77 81
77 130
77 200
77 133
77 83
77 135
77 86
77 137
77 90
77 96
77 98
77 181
77 141
77 142
77 143
77 226
77 144
77 145
78 120
78 123
78 149
78 128
78 79
78 80
78 81
78 129
78 132
78 133
78 178
78 83
78 134
78 84
78 85
78 135
78 86
78 136
78 180
78 137
78 90
78 167
78 91
78 96
78 97
78 98
78 140
78 100
78 142
78 143
78 188
78 182
78 144
78 145
78 101
79 147
79 152
79 146
79 166
79 165
79 120
79 148
79 121
79 123
79 149
79 168
79 128
79 80
79 81
79 129
79 130
79 131
79 132
79 133
79 83
79 134
79 84
79 85
79 135
79 86
79 179
79 180
79 137
79 211
79 90
79 167
79 91
79 92
79 216
79 96
79 97
79 219
79 98
79 181
79 221
79 140
79 100
79 235
79 142
79 236
79 143
79 188
79 182
79 144
79 145
79 101
79 237
79 183
79 238
79 239
79 240
80 166
80 165
80 120
80 123
80 128
80 81
80 130
80 132
80 133
80 134
80 84
80 85
80 135
80 86
80 179
80 180
80 90
80 167
80 91
80 96
80 97
80 98
80 99
80 140
80 141
80 142
80 143
80 182
80 145
80 101
80 237
80 183
80 238
80 239
80 240
81 152
81 146
81 119
81 166
81 165
81 170
81 120
81 148
81 121
81 169
81 154
81 176
81 184
81 122
81 189
81 175
81 191
81 123
81 149
81 185
81 192
81 125
81 172
81 230
81 126
81 127
81 171
81 168
81 128
81 186
81 241
81 187
81 199
81 130
81 131
81 132
81 133
81 178
81 83
81 134
81 84
81 85
81 135
81 86
81 87
81 205
81 242
81 136
81 206
81 207
81 208
81 179
81 243
81 180
81 244
81 137
81 211
81 90
81 167
81 212
81 91
81 92
81 138
81 245
81 96
81 218
81 97
81 98
81 99
81 221
81 222
81 140
81 100
81 223
81 142
81 143
81 188
81 182
81 144
81 145
81 101
82 87
82 88
82 89
82 233
82 90
82 94
82 97
82 98
82 99
83 126
83 128
83 132
83 133
83 134
83 84
83 135
83 86
83 208
83 210
83 137
83 90
83 213
83 91
83 92
83 96
83 97
83 98
83 99
83 100
83 142
84 146
84 166
84 165
84 120
84 121
84 154
84 123
84 185
84 171
84 128
84 130
84 132
84 133
84 134
84 135
84 86
84 136
84 207
84 179
84 180
84 137
84 211
84 90
84 167
84 212
84 91
84 92
84 138
84 254
84 96
84 218
84 97
84 98
84 99
84 255
84 221
84 140
84 141
84 142
84 143
84 188
84 182
84 144
84 145
84 101
85 152
85 146
85 166
85 120
85 148
85 123
85 149
85 194
85 232
85 128
85 187
85 132
85 134
85 135
85 86
85 256
85 179
85 209
85 180
85 211
85 91
85 215
85 96
85 97
85 219
85 98
85 99
85 181
85 140
85 100
85 142
85 143
85 145
85 101
85 183
86 104
86 119
86 165
86 174
86 177
86 157
86 123
86 124
86 185
86 125
86 158
86 126
86 159
86 195
86 128
86 196
86 197
86 199
86 130
86 229
86 131
86 132
86 200
86 201
86 133
86 134
86 135
86 258
86 204
86 136
86 206
86 207
86 260
86 261
86 208
86 89
86 251
86 262
86 263
86 264
86 180
86 210
86 137
86 90
86 265
86 167
86 212
86 213
86 266
86 91
86 92
86 138
86 254
86 94
86 217
86 95
86 96
86 218
86 97
86 98
86 99
86 139
86 221
86 140
86 100
86 141
86 223
86 142
86 143
86 188
86 182
86 144
86 145
86 101
86 183
87 227
87 88
87 89
87 233
87 90
87 267
87 93
87 94
87 95
87 97
87 98
87 99
87 100
88 233
88 90
88 93
88 94
88 217
88 253
88 95
88 97
88 98
88 99
89 129
89 90
89 93
89 94
89 217
89 253
89 95
89 97
89 98
89 99
89 222
89 100
89 101
90 126
90 130
90 132
90 133
90 134
90 204
90 208
90 137
90 91
90 92
90 138
90 93
90 94
90 217
90 95
90 96
90 97
90 98
90 99
90 139
90 220
90 100
90 223
90 142
90 143
91 166
91 165
91 120
91 154
91 123
91 149
91 230
91 194
91 168
91 128
91 186
91 187
91 130
91 131
91 132
91 133
91 134
91 135
91 205
91 136
91 256
91 179
91 209
91 180
91 244
91 137
91 211
91 167
91 212
91 284
91 285
91 92
91 287
91 283
91 234
91 288
91 254
91 215
91 247
91 216
91 245
91 96
91 218
91 97
91 289
91 219
91 98
91 99
91 290
91 181
91 280
91 221
91 282
91 291
91 222
91 140
91 100
91 292
91 223
91 235
91 142
91 236
91 143
91 188
91 182
91 144
91 145
91 101
91 183
92 126
92 128
92 132
92 133
92 135
92 136
92 208
92 210
92 137
92 212
92 213
92 254
92 215
92 96
92 218
92 97
92 98
92 281
92 294
92 222
92 140
92 141
92 223
92 142
92 143
92 144
92 145
92 101
93 233
93 252
93 94
93 95
93 97
93 98
93 99
94 233
94 217
94 95
94 96
94 97
94 98
94 99
94 100
95 233
95 96
95 97
95 98
95 99
95 100
96 166
96 165
96 120
96 154
96 123
96 149
96 192
96 172
96 230
96 126
96 171
96 128
96 186
96 187
96 130
96 131
96 132
96 133
96 134
96 135
96 250
96 136
96 207
96 179
96 180
96 244
96 210
96 137
96 211
96 167
96 212
96 284
96 213
96 138
96 287
96 234
96 254
96 215
96 216
96 218
96 97
96 289
96 219
96 98
96 99
96 300
96 301
96 302
96 255
96 290
96 181
96 220
96 280
96 281
96 221
96 282
96 291
96 222
96 303
96 140
96 100
96 292
96 141
96 223
96 235
96 142
96 236
96 143
96 188
96 182
96 144
96 145
96 101
96 183
96 238
97 124
97 125
97 158
97 126
97 130
97 132
97 133
97 202
97 134
97 204
97 208
97 278
97 210
97 137
97 213
97 293
97 138
97 217
97 253
97 98
97 99
97 305
97 139
97 220
97 222
97 100
97 141
97 223
97 142
98 156
98 155
98 123
98 125
98 126
98 128
98 129
98 130
98 131
98 132
98 133
98 202
98 203
98 134
98 135
98 204
98 250
98 136
98 208
98 179
98 251
98 180
98 233
98 210
98 137
98 211
98 265
98 167
98 212
98 267
98 213
98 266
98 214
98 138
98 254
98 215
98 296
98 252
98 298
98 217
98 253
98 286
98 218
98 304
98 99
98 301
98 302
98 306
98 307
98 308
98 255
98 181
98 139
98 295
98 220
98 309
98 310
98 311
98 312
98 280
98 313
98 281
98 221
98 282
98 222
98 314
98 315
98 140
98 100
98 316
98 141
98 223
98 142
98 143
98 317
98 318
98 188
98 182
98 144
98 319
98 320
98 145
98 101
98 183
99 233
99 137
99 138
99 217
99 220
99 100
99 101
100 126
100 128
100 129
100 130
100 132
100 133
100 134
100 135
100 250
100 210
100 137
100 213
100 138
100 279
100 139
100 220
100 280
100 281
100 221
100 282
100 222
100 314
100 140
100 141
100 223
100 142
100 143
100 317
100 188
100 182
100 144
100 319
100 320
100 145
100 101
101 123
101 168
101 128
101 132
101 133
101 134
101 135
101 137
101 167
101 221
101 291
101 140
101 141
101 142
101 143
101 188
101 182
101 144
101 145
101 237
101 183
101 238
101 239
101 240
102 321
102 322
102 323
102 324
102 277
102 325
103 104
104 116
104 157
104 158
104 159
106 107
106 109
106 150
107 108
107 109
109 150
109 151
109 119
109 122
111 112
111 114
111 115
113 114
114 115
116 153
117 118
119 150
120 166
120 165
120 154
120 123
120 128
120 132
120 134
120 135
120 167
120 142
121 131
121 133
122 169
122 131
123 166
123 165
123 128
123 132
123 134
123 135
123 137
123 167
123 142
123 143
123 182
123 145
123 183
124 174
124 157
124 158
125 126
126 159
127 193
128 152
128 146
128 166
128 165
128 154
128 130
128 131
128 133
128 202
128 134
128 135
128 136
128 179
128 180
128 137
128 211
128 167
128 234
128 219
128 221
128 140
128 142
128 143
128 188
128 182
128 144
128 145
130 131
130 132
130 133
130 134
130 135
130 137
130 142
130 143
131 170
131 169
131 185
131 171
131 194
131 199
131 132
131 133
131 134
131 135
131 136
131 206
131 142
131 143
132 152
132 146
132 166
132 165
132 148
132 154
132 184
132 149
132 194
132 168
132 133
132 134
132 135
132 179
132 180
132 137
132 211
132 167
132 234
132 247
132 216
132 245
132 181
132 221
132 222
132 140
132 142
132 143
132 188
132 182
132 144
132 145
132 183
133 177
133 194
133 134
133 135
133 136
133 206
133 137
133 140
133 142
133 143
133 226
133 144
133 145
134 164
134 166
134 165
134 154
134 189
134 149
134 230
134 168
134 179
134 209
134 180
134 137
134 211
134 167
134 181
134 221
134 140
134 142
134 143
134 188
134 182
134 144
134 145
134 183
135 166
135 165
135 154
135 149
135 136
135 137
135 211
135 167
135 219
135 140
135 142
135 143
135 182
135 144
135 145
136 207
136 137
136 218
137 185
137 207
137 179
137 180
137 211
137 167
137 212
137 254
137 215
137 218
137 255
137 280
137 281
137 221
137 282
137 140
137 141
137 223
137 142
137 143
137 182
137 144
137 145
137 183
138 214
138 286
138 279
138 139
138 295
138 220
138 141
139 214
139 217
140 218
140 279
140 141
140 223
140 142
140 143
140 145
141 210
141 213
141 218
141 279
141 295
141 220
141 222
141 223
141 317
141 319
142 165
142 149
142 168
142 211
142 167
142 218
142 181
142 221
142 282
142 291
142 235
142 143
142 188
142 182
142 144
142 145
142 183
142 238
142 240
143 167
143 282
143 291
143 236
143 188
143 182
143 144
143 145
143 183
144 167
144 236
144 188
144 182
144 145
145 168
145 167
145 226
145 182
146 147
146 154
147 148
147 149
148 152
149 178
149 167
150 151
154 172
154 167
155 156
155 160
157 159
158 195
158 196
158 229
160 161
165 166
165 168
165 167
166 167
167 172
167 168
167 186
167 187
167 270
167 179
167 180
167 211
167 234
167 247
167 216
167 245
167 219
167 181
167 221
167 235
167 236
167 188
167 182
167 183
167 238
167 240
168 178
168 182
169 170
169 171
171 185
171 192
171 194
173 174
175 176
179 256
179 209
179 180
181 289
181 219
181 221
181 238
181 240
182 221
183 238
183 328
183 239
183 240
186 187
187 232
194 231
195 196
196 199
197 201
197 246
198 246
199 246
200 225
204 259
205 207
207 209
207 212
208 251
208 210
209 211
210 213
210 254
210 279
211 283
211 216
213 279
214 286
214 279
215 218
216 289
216 219
218 302
218 255
218 290
219 221
220 286
220 279
220 295
220 222
220 223
221 282
221 235
221 236
222 286
222 279
222 295
222 223
222 319
223 279
223 319
227 228
233 271
233 272
233 273
235 236
237 239
238 240
251 263
251 254
252 267
252 253
254 279
255 301
255 302
255 280
255 281
260 262
265 266
275 276
277 321
277 325
279 286
279 295
280 301
280 302
280 281
280 282
281 302
281 290
282 301
290 301
301 302
307 308
322 324
323 324
327 330
327 329
327 331
329 330
330 331
330 332
